p cnf 529 1
529 0
w 1 0.190505
w 2 1 0.790587
w 2 -1 0.398265
w 3 2 0
w 3 -2 1
w 4 3 0
w 4 -3 1
w 5 4 1
w 5 -4 0
w 6 5 1
w 6 -5 0
w 7 6 1
w 7 -6 0
w 8 7 1
w 8 -7 0
w 9 8 0
w 9 -8 1
w 10 9 0
w 10 -9 1
w 11 10 0
w 11 -10 1
w 12 11 1
w 12 -11 0
w 13 12 0
w 13 -12 1
w 14 13 0
w 14 -13 1
w 15 14 1
w 15 -14 0
w 16 15 0.54119
w 16 -15 0.243011
w 17 16 0
w 17 -16 1
w 18 17 0.775789
w 18 -17 0.39891
w 19 18 1
w 19 -18 0
w 20 19 1
w 20 -19 0
w 21 20 0
w 21 -20 1
w 22 21 0.798992
w 22 -21 0.161285
w 23 22 1
w 23 -22 0
w 24 1 0
w 24 -1 1
w 25 24 2 0
w 25 24 -2 1
w 25 -24 2 1
w 25 -24 -2 0
w 26 25 3 0
w 26 25 -3 0
w 26 -25 3 1
w 26 -25 -3 1
w 27 26 4 1
w 27 26 -4 1
w 27 -26 4 0
w 27 -26 -4 1
w 28 27 5 0
w 28 27 -5 1
w 28 -27 5 0
w 28 -27 -5 0
w 29 28 6 0.989969
w 29 28 -6 0.122674
w 29 -28 6 0.837564
w 29 -28 -6 0.758387
w 30 29 7 0.998848
w 30 29 -7 0.00960787
w 30 -29 7 0.805739
w 30 -29 -7 0.364452
w 31 30 8 0
w 31 30 -8 0
w 31 -30 8 1
w 31 -30 -8 0
w 32 31 9 0
w 32 31 -9 1
w 32 -31 9 1
w 32 -31 -9 1
w 33 32 10 0
w 33 32 -10 1
w 33 -32 10 0
w 33 -32 -10 1
w 34 33 11 1
w 34 33 -11 0
w 34 -33 11 0
w 34 -33 -11 1
w 35 34 12 1
w 35 34 -12 0
w 35 -34 12 0
w 35 -34 -12 0
w 36 35 13 0
w 36 35 -13 1
w 36 -35 13 0
w 36 -35 -13 0
w 37 36 14 0.873354
w 37 36 -14 0.197011
w 37 -36 14 0.634168
w 37 -36 -14 0.972266
w 38 37 15 1
w 38 37 -15 1
w 38 -37 15 1
w 38 -37 -15 0
w 39 38 16 0.957627
w 39 38 -16 0.316819
w 39 -38 16 0.269639
w 39 -38 -16 0.431816
w 40 39 17 0
w 40 39 -17 1
w 40 -39 17 0
w 40 -39 -17 0
w 41 40 18 0.882996
w 41 40 -18 0.295105
w 41 -40 18 0.0184048
w 41 -40 -18 0.835499
w 42 41 19 1
w 42 41 -19 0
w 42 -41 19 0
w 42 -41 -19 1
w 43 42 20 1
w 43 42 -20 0
w 43 -42 20 0
w 43 -42 -20 0
w 44 43 21 0
w 44 43 -21 0
w 44 -43 21 1
w 44 -43 -21 0
w 45 44 22 0.214747
w 45 44 -22 0.0588485
w 45 -44 22 0.036613
w 45 -44 -22 0.646563
w 46 45 23 0
w 46 45 -23 0
w 46 -45 23 0
w 46 -45 -23 1
w 47 24 0
w 47 -24 1
w 48 47 25 0.583684
w 48 47 -25 0.171355
w 48 -47 25 0.991805
w 48 -47 -25 0.604011
w 49 48 26 0.786873
w 49 48 -26 0.432
w 49 -48 26 0.0608587
w 49 -48 -26 0.391752
w 50 49 27 0
w 50 49 -27 1
w 50 -49 27 1
w 50 -49 -27 1
w 51 50 28 0.684847
w 51 50 -28 0.0925543
w 51 -50 28 0.673124
w 51 -50 -28 0.451821
w 52 51 29 0
w 52 51 -29 1
w 52 -51 29 1
w 52 -51 -29 1
w 53 52 30 0.580996
w 53 52 -30 0.869638
w 53 -52 30 0.492957
w 53 -52 -30 0.146275
w 54 53 31 0
w 54 53 -31 1
w 54 -53 31 0
w 54 -53 -31 1
w 55 54 32 1
w 55 54 -32 1
w 55 -54 32 0
w 55 -54 -32 1
w 56 55 33 0
w 56 55 -33 0
w 56 -55 33 0
w 56 -55 -33 1
w 57 56 34 0
w 57 56 -34 0
w 57 -56 34 1
w 57 -56 -34 1
w 58 57 35 0.5819
w 58 57 -35 0.331364
w 58 -57 35 0.945591
w 58 -57 -35 0.998678
w 59 58 36 0
w 59 58 -36 0
w 59 -58 36 1
w 59 -58 -36 0
w 60 59 37 1
w 60 59 -37 1
w 60 -59 37 0
w 60 -59 -37 1
w 61 60 38 1
w 61 60 -38 0
w 61 -60 38 0
w 61 -60 -38 1
w 62 61 39 1
w 62 61 -39 1
w 62 -61 39 0
w 62 -61 -39 1
w 63 62 40 1
w 63 62 -40 1
w 63 -62 40 0
w 63 -62 -40 0
w 64 63 41 1
w 64 63 -41 0
w 64 -63 41 0
w 64 -63 -41 1
w 65 64 42 1
w 65 64 -42 1
w 65 -64 42 0
w 65 -64 -42 0
w 66 65 43 0
w 66 65 -43 0
w 66 -65 43 0
w 66 -65 -43 1
w 67 66 44 0
w 67 66 -44 0
w 67 -66 44 1
w 67 -66 -44 1
w 68 67 45 0
w 68 67 -45 1
w 68 -67 45 0
w 68 -67 -45 0
w 69 68 46 1
w 69 68 -46 0
w 69 -68 46 0
w 69 -68 -46 0
w 70 47 0
w 70 -47 1
w 71 70 48 1
w 71 70 -48 1
w 71 -70 48 1
w 71 -70 -48 0
w 72 71 49 0.363628
w 72 71 -49 0.662376
w 72 -71 49 0.116273
w 72 -71 -49 0.971473
w 73 72 50 0
w 73 72 -50 1
w 73 -72 50 1
w 73 -72 -50 1
w 74 73 51 0.745826
w 74 73 -51 0.329133
w 74 -73 51 0.29616
w 74 -73 -51 0.276736
w 75 74 52 1
w 75 74 -52 0
w 75 -74 52 1
w 75 -74 -52 1
w 76 75 53 1
w 76 75 -53 1
w 76 -75 53 0
w 76 -75 -53 0
w 77 76 54 0
w 77 76 -54 1
w 77 -76 54 1
w 77 -76 -54 1
w 78 77 55 1
w 78 77 -55 0
w 78 -77 55 1
w 78 -77 -55 0
w 79 78 56 0
w 79 78 -56 1
w 79 -78 56 1
w 79 -78 -56 0
w 80 79 57 0.490093
w 80 79 -57 0.850157
w 80 -79 57 0.220833
w 80 -79 -57 0.766829
w 81 80 58 0
w 81 80 -58 1
w 81 -80 58 0
w 81 -80 -58 1
w 82 81 59 0
w 82 81 -59 1
w 82 -81 59 0
w 82 -81 -59 0
w 83 82 60 1
w 83 82 -60 0
w 83 -82 60 0
w 83 -82 -60 1
w 84 83 61 0
w 84 83 -61 0
w 84 -83 61 0
w 84 -83 -61 1
w 85 84 62 1
w 85 84 -62 0
w 85 -84 62 0
w 85 -84 -62 0
w 86 85 63 1
w 86 85 -63 1
w 86 -85 63 0
w 86 -85 -63 0
w 87 86 64 1
w 87 86 -64 1
w 87 -86 64 0
w 87 -86 -64 1
w 88 87 65 0
w 88 87 -65 1
w 88 -87 65 1
w 88 -87 -65 1
w 89 88 66 0
w 89 88 -66 0
w 89 -88 66 1
w 89 -88 -66 1
w 90 89 67 1
w 90 89 -67 1
w 90 -89 67 0
w 90 -89 -67 1
w 91 90 68 0.608906
w 91 90 -68 0.169061
w 91 -90 68 0.916696
w 91 -90 -68 0.546074
w 92 91 69 0
w 92 91 -69 0
w 92 -91 69 1
w 92 -91 -69 0
w 93 70 0
w 93 -70 1
w 94 93 71 1
w 94 93 -71 0
w 94 -93 71 1
w 94 -93 -71 0
w 95 94 72 0
w 95 94 -72 1
w 95 -94 72 1
w 95 -94 -72 1
w 96 95 73 1
w 96 95 -73 0
w 96 -95 73 1
w 96 -95 -73 1
w 97 96 74 0
w 97 96 -74 1
w 97 -96 74 0
w 97 -96 -74 1
w 98 97 75 0
w 98 97 -75 1
w 98 -97 75 0
w 98 -97 -75 0
w 99 98 76 0
w 99 98 -76 1
w 99 -98 76 1
w 99 -98 -76 1
w 100 99 77 0
w 100 99 -77 0
w 100 -99 77 1
w 100 -99 -77 1
w 101 100 78 1
w 101 100 -78 0
w 101 -100 78 0
w 101 -100 -78 0
w 102 101 79 0
w 102 101 -79 0
w 102 -101 79 1
w 102 -101 -79 1
w 103 102 80 0
w 103 102 -80 1
w 103 -102 80 0
w 103 -102 -80 0
w 104 103 81 1
w 104 103 -81 0
w 104 -103 81 0
w 104 -103 -81 0
w 105 104 82 1
w 105 104 -82 0
w 105 -104 82 1
w 105 -104 -82 0
w 106 105 83 0
w 106 105 -83 0
w 106 -105 83 0
w 106 -105 -83 1
w 107 106 84 0.762551
w 107 106 -84 0.423042
w 107 -106 84 0.43258
w 107 -106 -84 0.58728
w 108 107 85 1
w 108 107 -85 1
w 108 -107 85 0
w 108 -107 -85 0
w 109 108 86 1
w 109 108 -86 0
w 109 -108 86 0
w 109 -108 -86 1
w 110 109 87 1
w 110 109 -87 1
w 110 -109 87 0
w 110 -109 -87 1
w 111 110 88 0
w 111 110 -88 0
w 111 -110 88 1
w 111 -110 -88 1
w 112 111 89 0.0893579
w 112 111 -89 0.204813
w 112 -111 89 0.716973
w 112 -111 -89 0.298742
w 113 112 90 0
w 113 112 -90 1
w 113 -112 90 0
w 113 -112 -90 0
w 114 113 91 1
w 114 113 -91 0
w 114 -113 91 1
w 114 -113 -91 1
w 115 114 92 1
w 115 114 -92 1
w 115 -114 92 0
w 115 -114 -92 1
w 116 93 1
w 116 -93 0
w 117 116 94 1
w 117 116 -94 0
w 117 -116 94 1
w 117 -116 -94 1
w 118 117 95 0
w 118 117 -95 1
w 118 -117 95 0
w 118 -117 -95 1
w 119 118 96 0.0640609
w 119 118 -96 0.444287
w 119 -118 96 0.585924
w 119 -118 -96 0.125354
w 120 119 97 1
w 120 119 -97 1
w 120 -119 97 0
w 120 -119 -97 0
w 121 120 98 0.447464
w 121 120 -98 0.538172
w 121 -120 98 0.695617
w 121 -120 -98 0.56473
w 122 121 99 0
w 122 121 -99 1
w 122 -121 99 1
w 122 -121 -99 1
w 123 122 100 0.689139
w 123 122 -100 0.0553321
w 123 -122 100 0.0760449
w 123 -122 -100 0.980997
w 124 123 101 0
w 124 123 -101 0
w 124 -123 101 1
w 124 -123 -101 0
w 125 124 102 1
w 125 124 -102 0
w 125 -124 102 1
w 125 -124 -102 1
w 126 125 103 0
w 126 125 -103 1
w 126 -125 103 0
w 126 -125 -103 0
w 127 126 104 0.476404
w 127 126 -104 0.147841
w 127 -126 104 0.403212
w 127 -126 -104 0.7417
w 128 127 105 1
w 128 127 -105 0
w 128 -127 105 0
w 128 -127 -105 1
w 129 128 106 0.373355
w 129 128 -106 0.751524
w 129 -128 106 0.990093
w 129 -128 -106 0.354353
w 130 129 107 1
w 130 129 -107 0
w 130 -129 107 0
w 130 -129 -107 1
w 131 130 108 0
w 131 130 -108 1
w 131 -130 108 0
w 131 -130 -108 0
w 132 131 109 0
w 132 131 -109 0
w 132 -131 109 1
w 132 -131 -109 0
w 133 132 110 1
w 133 132 -110 0
w 133 -132 110 1
w 133 -132 -110 0
w 134 133 111 0.679204
w 134 133 -111 0.587072
w 134 -133 111 0.124571
w 134 -133 -111 0.363421
w 135 134 112 1
w 135 134 -112 0
w 135 -134 112 1
w 135 -134 -112 0
w 136 135 113 1
w 136 135 -113 1
w 136 -135 113 0
w 136 -135 -113 1
w 137 136 114 0.360591
w 137 136 -114 0.0371409
w 137 -136 114 0.952535
w 137 -136 -114 0.803796
w 138 137 115 0
w 138 137 -115 0
w 138 -137 115 0
w 138 -137 -115 1
w 139 116 1
w 139 -116 0
w 140 139 117 0
w 140 139 -117 0
w 140 -139 117 1
w 140 -139 -117 0
w 141 140 118 0.796585
w 141 140 -118 0.416446
w 141 -140 118 0.195251
w 141 -140 -118 0.835203
w 142 141 119 0
w 142 141 -119 1
w 142 -141 119 1
w 142 -141 -119 1
w 143 142 120 1
w 143 142 -120 0
w 143 -142 120 1
w 143 -142 -120 1
w 144 143 121 1
w 144 143 -121 1
w 144 -143 121 0
w 144 -143 -121 1
w 145 144 122 1
w 145 144 -122 0
w 145 -144 122 0
w 145 -144 -122 0
w 146 145 123 1
w 146 145 -123 0
w 146 -145 123 1
w 146 -145 -123 1
w 147 146 124 1
w 147 146 -124 0
w 147 -146 124 0
w 147 -146 -124 0
w 148 147 125 0
w 148 147 -125 1
w 148 -147 125 0
w 148 -147 -125 1
w 149 148 126 1
w 149 148 -126 1
w 149 -148 126 1
w 149 -148 -126 0
w 150 149 127 0
w 150 149 -127 0
w 150 -149 127 1
w 150 -149 -127 0
w 151 150 128 0
w 151 150 -128 0
w 151 -150 128 0
w 151 -150 -128 1
w 152 151 129 1
w 152 151 -129 0
w 152 -151 129 0
w 152 -151 -129 0
w 153 152 130 1
w 153 152 -130 1
w 153 -152 130 0
w 153 -152 -130 1
w 154 153 131 0
w 154 153 -131 1
w 154 -153 131 0
w 154 -153 -131 0
w 155 154 132 1
w 155 154 -132 0
w 155 -154 132 1
w 155 -154 -132 1
w 156 155 133 0
w 156 155 -133 1
w 156 -155 133 1
w 156 -155 -133 1
w 157 156 134 0.108621
w 157 156 -134 0.764511
w 157 -156 134 0.799347
w 157 -156 -134 0.775562
w 158 157 135 1
w 158 157 -135 1
w 158 -157 135 1
w 158 -157 -135 0
w 159 158 136 0
w 159 158 -136 1
w 159 -158 136 0
w 159 -158 -136 0
w 160 159 137 1
w 160 159 -137 1
w 160 -159 137 0
w 160 -159 -137 1
w 161 160 138 1
w 161 160 -138 0
w 161 -160 138 1
w 161 -160 -138 1
w 162 139 0
w 162 -139 1
w 163 162 140 1
w 163 162 -140 1
w 163 -162 140 0
w 163 -162 -140 1
w 164 163 141 0
w 164 163 -141 0
w 164 -163 141 1
w 164 -163 -141 0
w 165 164 142 1
w 165 164 -142 1
w 165 -164 142 1
w 165 -164 -142 0
w 166 165 143 0.754161
w 166 165 -143 0.41187
w 166 -165 143 0.948923
w 166 -165 -143 0.786956
w 167 166 144 1
w 167 166 -144 0
w 167 -166 144 0
w 167 -166 -144 1
w 168 167 145 1
w 168 167 -145 0
w 168 -167 145 0
w 168 -167 -145 0
w 169 168 146 0.11239
w 169 168 -146 0.258882
w 169 -168 146 0.675825
w 169 -168 -146 0.14405
w 170 169 147 0.29422
w 170 169 -147 0.975058
w 170 -169 147 0.138539
w 170 -169 -147 0.613504
w 171 170 148 0
w 171 170 -148 0
w 171 -170 148 0
w 171 -170 -148 1
w 172 171 149 0.363857
w 172 171 -149 0.510471
w 172 -171 149 0.697263
w 172 -171 -149 0.10247
w 173 172 150 0
w 173 172 -150 1
w 173 -172 150 0
w 173 -172 -150 1
w 174 173 151 1
w 174 173 -151 0
w 174 -173 151 1
w 174 -173 -151 1
w 175 174 152 0
w 175 174 -152 1
w 175 -174 152 1
w 175 -174 -152 0
w 176 175 153 1
w 176 175 -153 0
w 176 -175 153 0
w 176 -175 -153 0
w 177 176 154 1
w 177 176 -154 0
w 177 -176 154 1
w 177 -176 -154 1
w 178 177 155 0.11274
w 178 177 -155 0.452965
w 178 -177 155 0.439976
w 178 -177 -155 0.810003
w 179 178 156 0
w 179 178 -156 1
w 179 -178 156 0
w 179 -178 -156 0
w 180 179 157 1
w 180 179 -157 1
w 180 -179 157 1
w 180 -179 -157 0
w 181 180 158 1
w 181 180 -158 0
w 181 -180 158 0
w 181 -180 -158 0
w 182 181 159 1
w 182 181 -159 0
w 182 -181 159 1
w 182 -181 -159 1
w 183 182 160 0
w 183 182 -160 1
w 183 -182 160 1
w 183 -182 -160 0
w 184 183 161 1
w 184 183 -161 0
w 184 -183 161 0
w 184 -183 -161 0
w 185 162 0
w 185 -162 1
w 186 185 163 0.184064
w 186 185 -163 0.568748
w 186 -185 163 0.847505
w 186 -185 -163 0.506241
w 187 186 164 0
w 187 186 -164 0
w 187 -186 164 1
w 187 -186 -164 0
w 188 187 165 1
w 188 187 -165 0
w 188 -187 165 1
w 188 -187 -165 0
w 189 188 166 0.815984
w 189 188 -166 0.587475
w 189 -188 166 0.39225
w 189 -188 -166 0.160571
w 190 189 167 0.199114
w 190 189 -167 0.707591
w 190 -189 167 0.369266
w 190 -189 -167 0.935483
w 191 190 168 0
w 191 190 -168 0
w 191 -190 168 1
w 191 -190 -168 0
w 192 191 169 0.680096
w 192 191 -169 0.885592
w 192 -191 169 0.495079
w 192 -191 -169 0.527601
w 193 192 170 0
w 193 192 -170 0
w 193 -192 170 0
w 193 -192 -170 1
w 194 193 171 0
w 194 193 -171 0
w 194 -193 171 1
w 194 -193 -171 1
w 195 194 172 0.848588
w 195 194 -172 0.1927
w 195 -194 172 0.525438
w 195 -194 -172 0.240838
w 196 195 173 0
w 196 195 -173 1
w 196 -195 173 1
w 196 -195 -173 0
w 197 196 174 1
w 197 196 -174 0
w 197 -196 174 1
w 197 -196 -174 0
w 198 197 175 0.413596
w 198 197 -175 0.945421
w 198 -197 175 0.673321
w 198 -197 -175 0.908675
w 199 198 176 0
w 199 198 -176 0
w 199 -198 176 1
w 199 -198 -176 1
w 200 199 177 0
w 200 199 -177 1
w 200 -199 177 0
w 200 -199 -177 1
w 201 200 178 1
w 201 200 -178 0
w 201 -200 178 0
w 201 -200 -178 1
w 202 201 179 0.661071
w 202 201 -179 0.575981
w 202 -201 179 0.252597
w 202 -201 -179 0.721932
w 203 202 180 1
w 203 202 -180 0
w 203 -202 180 1
w 203 -202 -180 1
w 204 203 181 1
w 204 203 -181 0
w 204 -203 181 0
w 204 -203 -181 0
w 205 204 182 0.0169077
w 205 204 -182 0.895534
w 205 -204 182 0.0700039
w 205 -204 -182 0.896262
w 206 205 183 0.897977
w 206 205 -183 0.634647
w 206 -205 183 0.642477
w 206 -205 -183 0.621196
w 207 206 184 0
w 207 206 -184 0
w 207 -206 184 1
w 207 -206 -184 1
w 208 185 0
w 208 -185 1
w 209 208 186 0.258244
w 209 208 -186 0.44055
w 209 -208 186 0.330975
w 209 -208 -186 0.886276
w 210 209 187 1
w 210 209 -187 0
w 210 -209 187 1
w 210 -209 -187 1
w 211 210 188 1
w 211 210 -188 0
w 211 -210 188 1
w 211 -210 -188 1
w 212 211 189 0.27097
w 212 211 -189 0.965032
w 212 -211 189 0.852716
w 212 -211 -189 0.168947
w 213 212 190 1
w 213 212 -190 1
w 213 -212 190 0
w 213 -212 -190 0
w 214 213 191 0.406975
w 214 213 -191 0.0794504
w 214 -213 191 0.988793
w 214 -213 -191 0.125594
w 215 214 192 0
w 215 214 -192 1
w 215 -214 192 1
w 215 -214 -192 0
w 216 215 193 0
w 216 215 -193 1
w 216 -215 193 1
w 216 -215 -193 1
w 217 216 194 1
w 217 216 -194 0
w 217 -216 194 0
w 217 -216 -194 0
w 218 217 195 1
w 218 217 -195 0
w 218 -217 195 1
w 218 -217 -195 1
w 219 218 196 0
w 219 218 -196 1
w 219 -218 196 0
w 219 -218 -196 1
w 220 219 197 1
w 220 219 -197 0
w 220 -219 197 0
w 220 -219 -197 0
w 221 220 198 0.659186
w 221 220 -198 0.180054
w 221 -220 198 0.392169
w 221 -220 -198 0.996085
w 222 221 199 1
w 222 221 -199 0
w 222 -221 199 1
w 222 -221 -199 1
w 223 222 200 0
w 223 222 -200 0
w 223 -222 200 1
w 223 -222 -200 0
w 224 223 201 0
w 224 223 -201 0
w 224 -223 201 1
w 224 -223 -201 1
w 225 224 202 0
w 225 224 -202 0
w 225 -224 202 1
w 225 -224 -202 1
w 226 225 203 0
w 226 225 -203 1
w 226 -225 203 0
w 226 -225 -203 0
w 227 226 204 0
w 227 226 -204 1
w 227 -226 204 1
w 227 -226 -204 0
w 228 227 205 1
w 228 227 -205 1
w 228 -227 205 1
w 228 -227 -205 0
w 229 228 206 0.0396058
w 229 228 -206 0.106751
w 229 -228 206 0.612689
w 229 -228 -206 0.786588
w 230 229 207 0
w 230 229 -207 1
w 230 -229 207 0
w 230 -229 -207 1
w 231 208 1
w 231 -208 0
w 232 231 209 1
w 232 231 -209 0
w 232 -231 209 0
w 232 -231 -209 1
w 233 232 210 0
w 233 232 -210 1
w 233 -232 210 0
w 233 -232 -210 0
w 234 233 211 1
w 234 233 -211 1
w 234 -233 211 0
w 234 -233 -211 1
w 235 234 212 1
w 235 234 -212 0
w 235 -234 212 0
w 235 -234 -212 0
w 236 235 213 0.564886
w 236 235 -213 0.362747
w 236 -235 213 0.737978
w 236 -235 -213 0.644718
w 237 236 214 0
w 237 236 -214 0
w 237 -236 214 1
w 237 -236 -214 1
w 238 237 215 0.797165
w 238 237 -215 0.455148
w 238 -237 215 0.208531
w 238 -237 -215 0.0372673
w 239 238 216 1
w 239 238 -216 1
w 239 -238 216 0
w 239 -238 -216 0
w 240 239 217 0
w 240 239 -217 1
w 240 -239 217 0
w 240 -239 -217 0
w 241 240 218 1
w 241 240 -218 1
w 241 -240 218 0
w 241 -240 -218 1
w 242 241 219 1
w 242 241 -219 0
w 242 -241 219 0
w 242 -241 -219 0
w 243 242 220 0
w 243 242 -220 0
w 243 -242 220 1
w 243 -242 -220 1
w 244 243 221 0
w 244 243 -221 1
w 244 -243 221 1
w 244 -243 -221 0
w 245 244 222 0.15264
w 245 244 -222 0.578414
w 245 -244 222 0.513218
w 245 -244 -222 0.422913
w 246 245 223 0
w 246 245 -223 1
w 246 -245 223 1
w 246 -245 -223 1
w 247 246 224 1
w 247 246 -224 0
w 247 -246 224 0
w 247 -246 -224 0
w 248 247 225 1
w 248 247 -225 1
w 248 -247 225 1
w 248 -247 -225 0
w 249 248 226 0.23934
w 249 248 -226 0.863128
w 249 -248 226 0.681645
w 249 -248 -226 0.140847
w 250 249 227 0.849185
w 250 249 -227 0.942886
w 250 -249 227 0.692165
w 250 -249 -227 0.471873
w 251 250 228 0.542533
w 251 250 -228 0.624513
w 251 -250 228 0.53187
w 251 -250 -228 0.0557517
w 252 251 229 0
w 252 251 -229 1
w 252 -251 229 0
w 252 -251 -229 1
w 253 252 230 1
w 253 252 -230 1
w 253 -252 230 0
w 253 -252 -230 0
w 254 231 0.991057
w 254 -231 0.740776
w 255 254 232 0.028512
w 255 254 -232 0.830079
w 255 -254 232 0.684646
w 255 -254 -232 0.267852
w 256 255 233 1
w 256 255 -233 0
w 256 -255 233 0
w 256 -255 -233 0
w 257 256 234 1
w 257 256 -234 0
w 257 -256 234 1
w 257 -256 -234 0
w 258 257 235 0
w 258 257 -235 0
w 258 -257 235 1
w 258 -257 -235 0
w 259 258 236 0.164925
w 259 258 -236 0.789866
w 259 -258 236 0.954395
w 259 -258 -236 0.449882
w 260 259 237 1
w 260 259 -237 1
w 260 -259 237 0
w 260 -259 -237 1
w 261 260 238 0
w 261 260 -238 1
w 261 -260 238 0
w 261 -260 -238 0
w 262 261 239 0
w 262 261 -239 1
w 262 -261 239 0
w 262 -261 -239 0
w 263 262 240 1
w 263 262 -240 0
w 263 -262 240 1
w 263 -262 -240 1
w 264 263 241 0.654821
w 264 263 -241 0.566991
w 264 -263 241 0.316304
w 264 -263 -241 0.513502
w 265 264 242 0
w 265 264 -242 0
w 265 -264 242 0
w 265 -264 -242 1
w 266 265 243 0
w 266 265 -243 0
w 266 -265 243 1
w 266 -265 -243 1
w 267 266 244 1
w 267 266 -244 1
w 267 -266 244 0
w 267 -266 -244 0
w 268 267 245 0
w 268 267 -245 0
w 268 -267 245 1
w 268 -267 -245 0
w 269 268 246 1
w 269 268 -246 1
w 269 -268 246 0
w 269 -268 -246 1
w 270 269 247 0.622301
w 270 269 -247 0.758616
w 270 -269 247 0.494367
w 270 -269 -247 0.938605
w 271 270 248 0
w 271 270 -248 1
w 271 -270 248 0
w 271 -270 -248 1
w 272 271 249 1
w 272 271 -249 1
w 272 -271 249 0
w 272 -271 -249 0
w 273 272 250 1
w 273 272 -250 0
w 273 -272 250 1
w 273 -272 -250 1
w 274 273 251 1
w 274 273 -251 1
w 274 -273 251 0
w 274 -273 -251 0
w 275 274 252 0.513625
w 275 274 -252 0.268351
w 275 -274 252 0.217733
w 275 -274 -252 0.178911
w 276 275 253 0
w 276 275 -253 1
w 276 -275 253 1
w 276 -275 -253 0
w 277 254 1
w 277 -254 0
w 278 277 255 0
w 278 277 -255 0
w 278 -277 255 1
w 278 -277 -255 0
w 279 278 256 0.442649
w 279 278 -256 0.589187
w 279 -278 256 0.0601716
w 279 -278 -256 0.181237
w 280 279 257 0.171331
w 280 279 -257 0.778964
w 280 -279 257 0.908618
w 280 -279 -257 0.602493
w 281 280 258 0.577444
w 281 280 -258 0.0959855
w 281 -280 258 0.970885
w 281 -280 -258 0.572072
w 282 281 259 0
w 282 281 -259 1
w 282 -281 259 0
w 282 -281 -259 0
w 283 282 260 0.589733
w 283 282 -260 0.742142
w 283 -282 260 0.57439
w 283 -282 -260 0.32955
w 284 283 261 0
w 284 283 -261 1
w 284 -283 261 1
w 284 -283 -261 1
w 285 284 262 0.0163635
w 285 284 -262 0.727966
w 285 -284 262 0.588984
w 285 -284 -262 0.0765351
w 286 285 263 0.521716
w 286 285 -263 0.247866
w 286 -285 263 0.688167
w 286 -285 -263 0.430334
w 287 286 264 0.676585
w 287 286 -264 0.00777765
w 287 -286 264 0.946345
w 287 -286 -264 0.64747
w 288 287 265 0
w 288 287 -265 1
w 288 -287 265 1
w 288 -287 -265 0
w 289 288 266 0
w 289 288 -266 1
w 289 -288 266 1
w 289 -288 -266 0
w 290 289 267 0
w 290 289 -267 0
w 290 -289 267 0
w 290 -289 -267 1
w 291 290 268 0
w 291 290 -268 1
w 291 -290 268 1
w 291 -290 -268 1
w 292 291 269 0
w 292 291 -269 0
w 292 -291 269 0
w 292 -291 -269 1
w 293 292 270 0
w 293 292 -270 0
w 293 -292 270 1
w 293 -292 -270 1
w 294 293 271 0.202059
w 294 293 -271 0.907224
w 294 -293 271 0.251076
w 294 -293 -271 0.546536
w 295 294 272 0
w 295 294 -272 0
w 295 -294 272 1
w 295 -294 -272 0
w 296 295 273 1
w 296 295 -273 0
w 296 -295 273 1
w 296 -295 -273 0
w 297 296 274 0.250228
w 297 296 -274 0.0644211
w 297 -296 274 0.990639
w 297 -296 -274 0.591972
w 298 297 275 1
w 298 297 -275 0
w 298 -297 275 0
w 298 -297 -275 1
w 299 298 276 1
w 299 298 -276 1
w 299 -298 276 1
w 299 -298 -276 0
w 300 277 0
w 300 -277 1
w 301 300 278 1
w 301 300 -278 0
w 301 -300 278 1
w 301 -300 -278 1
w 302 301 279 0
w 302 301 -279 1
w 302 -301 279 0
w 302 -301 -279 1
w 303 302 280 1
w 303 302 -280 0
w 303 -302 280 1
w 303 -302 -280 1
w 304 303 281 1
w 304 303 -281 0
w 304 -303 281 1
w 304 -303 -281 1
w 305 304 282 0.27048
w 305 304 -282 0.379388
w 305 -304 282 0.0780927
w 305 -304 -282 0.338928
w 306 305 283 0
w 306 305 -283 0
w 306 -305 283 1
w 306 -305 -283 0
w 307 306 284 1
w 307 306 -284 1
w 307 -306 284 1
w 307 -306 -284 0
w 308 307 285 0
w 308 307 -285 0
w 308 -307 285 0
w 308 -307 -285 1
w 309 308 286 0
w 309 308 -286 1
w 309 -308 286 0
w 309 -308 -286 1
w 310 309 287 0
w 310 309 -287 0
w 310 -309 287 0
w 310 -309 -287 1
w 311 310 288 1
w 311 310 -288 1
w 311 -310 288 1
w 311 -310 -288 0
w 312 311 289 1
w 312 311 -289 0
w 312 -311 289 1
w 312 -311 -289 0
w 313 312 290 1
w 313 312 -290 1
w 313 -312 290 0
w 313 -312 -290 1
w 314 313 291 1
w 314 313 -291 1
w 314 -313 291 0
w 314 -313 -291 1
w 315 314 292 0.870804
w 315 314 -292 0.203879
w 315 -314 292 0.566638
w 315 -314 -292 0.608443
w 316 315 293 1
w 316 315 -293 0
w 316 -315 293 1
w 316 -315 -293 0
w 317 316 294 0.543423
w 317 316 -294 0.873038
w 317 -316 294 0.970429
w 317 -316 -294 0.181012
w 318 317 295 0
w 318 317 -295 1
w 318 -317 295 0
w 318 -317 -295 0
w 319 318 296 1
w 319 318 -296 1
w 319 -318 296 0
w 319 -318 -296 1
w 320 319 297 0.256196
w 320 319 -297 0.969419
w 320 -319 297 0.633982
w 320 -319 -297 0.589529
w 321 320 298 0.504786
w 321 320 -298 0.793408
w 321 -320 298 0.534982
w 321 -320 -298 0.113229
w 322 321 299 1
w 322 321 -299 1
w 322 -321 299 0
w 322 -321 -299 1
w 323 300 0.279238
w 323 -300 0.637085
w 324 323 301 0.46025
w 324 323 -301 0.0482134
w 324 -323 301 0.28567
w 324 -323 -301 0.709033
w 325 324 302 0.680533
w 325 324 -302 0.387988
w 325 -324 302 0.305244
w 325 -324 -302 0.425648
w 326 325 303 0
w 326 325 -303 1
w 326 -325 303 0
w 326 -325 -303 0
w 327 326 304 1
w 327 326 -304 0
w 327 -326 304 1
w 327 -326 -304 0
w 328 327 305 0
w 328 327 -305 1
w 328 -327 305 0
w 328 -327 -305 1
w 329 328 306 0
w 329 328 -306 0
w 329 -328 306 0
w 329 -328 -306 1
w 330 329 307 1
w 330 329 -307 1
w 330 -329 307 0
w 330 -329 -307 1
w 331 330 308 1
w 331 330 -308 0
w 331 -330 308 1
w 331 -330 -308 0
w 332 331 309 1
w 332 331 -309 0
w 332 -331 309 1
w 332 -331 -309 1
w 333 332 310 0
w 333 332 -310 1
w 333 -332 310 1
w 333 -332 -310 1
w 334 333 311 1
w 334 333 -311 1
w 334 -333 311 1
w 334 -333 -311 0
w 335 334 312 0
w 335 334 -312 1
w 335 -334 312 0
w 335 -334 -312 1
w 336 335 313 0
w 336 335 -313 0
w 336 -335 313 0
w 336 -335 -313 1
w 337 336 314 1
w 337 336 -314 1
w 337 -336 314 1
w 337 -336 -314 0
w 338 337 315 1
w 338 337 -315 0
w 338 -337 315 0
w 338 -337 -315 0
w 339 338 316 1
w 339 338 -316 1
w 339 -338 316 0
w 339 -338 -316 1
w 340 339 317 0.152652
w 340 339 -317 0.511453
w 340 -339 317 0.109816
w 340 -339 -317 0.726424
w 341 340 318 1
w 341 340 -318 0
w 341 -340 318 1
w 341 -340 -318 1
w 342 341 319 0.928541
w 342 341 -319 0.388513
w 342 -341 319 0.736997
w 342 -341 -319 0.28548
w 343 342 320 1
w 343 342 -320 1
w 343 -342 320 0
w 343 -342 -320 0
w 344 343 321 1
w 344 343 -321 0
w 344 -343 321 1
w 344 -343 -321 1
w 345 344 322 0
w 345 344 -322 0
w 345 -344 322 1
w 345 -344 -322 1
w 346 323 0.155595
w 346 -323 0.695308
w 347 346 324 1
w 347 346 -324 1
w 347 -346 324 1
w 347 -346 -324 0
w 348 347 325 0.616765
w 348 347 -325 0.572559
w 348 -347 325 0.781316
w 348 -347 -325 0.545307
w 349 348 326 0.518313
w 349 348 -326 0.830787
w 349 -348 326 0.269213
w 349 -348 -326 0.900317
w 350 349 327 0.358662
w 350 349 -327 0.228261
w 350 -349 327 0.228037
w 350 -349 -327 0.857219
w 351 350 328 1
w 351 350 -328 1
w 351 -350 328 0
w 351 -350 -328 1
w 352 351 329 0.500736
w 352 351 -329 0.161324
w 352 -351 329 0.0671122
w 352 -351 -329 0.196044
w 353 352 330 1
w 353 352 -330 0
w 353 -352 330 0
w 353 -352 -330 0
w 354 353 331 1
w 354 353 -331 0
w 354 -353 331 0
w 354 -353 -331 1
w 355 354 332 0
w 355 354 -332 0
w 355 -354 332 1
w 355 -354 -332 0
w 356 355 333 0
w 356 355 -333 0
w 356 -355 333 0
w 356 -355 -333 1
w 357 356 334 0.313485
w 357 356 -334 0.63783
w 357 -356 334 0.865343
w 357 -356 -334 0.607448
w 358 357 335 1
w 358 357 -335 0
w 358 -357 335 0
w 358 -357 -335 0
w 359 358 336 0
w 359 358 -336 0
w 359 -358 336 1
w 359 -358 -336 1
w 360 359 337 1
w 360 359 -337 0
w 360 -359 337 0
w 360 -359 -337 0
w 361 360 338 1
w 361 360 -338 0
w 361 -360 338 0
w 361 -360 -338 0
w 362 361 339 0
w 362 361 -339 1
w 362 -361 339 0
w 362 -361 -339 1
w 363 362 340 1
w 363 362 -340 1
w 363 -362 340 1
w 363 -362 -340 0
w 364 363 341 1
w 364 363 -341 0
w 364 -363 341 1
w 364 -363 -341 1
w 365 364 342 0
w 365 364 -342 1
w 365 -364 342 1
w 365 -364 -342 1
w 366 365 343 0.185373
w 366 365 -343 0.920207
w 366 -365 343 0.685096
w 366 -365 -343 0.908482
w 367 366 344 1
w 367 366 -344 1
w 367 -366 344 0
w 367 -366 -344 1
w 368 367 345 0
w 368 367 -345 0
w 368 -367 345 1
w 368 -367 -345 1
w 369 346 0
w 369 -346 1
w 370 369 347 0
w 370 369 -347 1
w 370 -369 347 1
w 370 -369 -347 1
w 371 370 348 0
w 371 370 -348 1
w 371 -370 348 1
w 371 -370 -348 1
w 372 371 349 0
w 372 371 -349 0
w 372 -371 349 1
w 372 -371 -349 1
w 373 372 350 0
w 373 372 -350 1
w 373 -372 350 1
w 373 -372 -350 0
w 374 373 351 0
w 374 373 -351 0
w 374 -373 351 0
w 374 -373 -351 1
w 375 374 352 1
w 375 374 -352 0
w 375 -374 352 0
w 375 -374 -352 1
w 376 375 353 0.623885
w 376 375 -353 0.402418
w 376 -375 353 0.412859
w 376 -375 -353 0.783766
w 377 376 354 0
w 377 376 -354 1
w 377 -376 354 0
w 377 -376 -354 1
w 378 377 355 0
w 378 377 -355 1
w 378 -377 355 1
w 378 -377 -355 0
w 379 378 356 1
w 379 378 -356 0
w 379 -378 356 0
w 379 -378 -356 0
w 380 379 357 0.0268792
w 380 379 -357 0.806038
w 380 -379 357 0.028331
w 380 -379 -357 0.750364
w 381 380 358 0.485917
w 381 380 -358 0.200713
w 381 -380 358 0.682855
w 381 -380 -358 0.456435
w 382 381 359 0
w 382 381 -359 0
w 382 -381 359 0
w 382 -381 -359 1
w 383 382 360 0.414483
w 383 382 -360 0.782848
w 383 -382 360 0.876367
w 383 -382 -360 0.335178
w 384 383 361 0
w 384 383 -361 0
w 384 -383 361 1
w 384 -383 -361 0
w 385 384 362 0
w 385 384 -362 1
w 385 -384 362 0
w 385 -384 -362 0
w 386 385 363 1
w 386 385 -363 0
w 386 -385 363 1
w 386 -385 -363 1
w 387 386 364 1
w 387 386 -364 0
w 387 -386 364 0
w 387 -386 -364 1
w 388 387 365 0.456746
w 388 387 -365 0.23968
w 388 -387 365 0.939307
w 388 -387 -365 0.867387
w 389 388 366 0
w 389 388 -366 0
w 389 -388 366 0
w 389 -388 -366 1
w 390 389 367 0
w 390 389 -367 1
w 390 -389 367 1
w 390 -389 -367 1
w 391 390 368 1
w 391 390 -368 1
w 391 -390 368 1
w 391 -390 -368 0
w 392 369 1
w 392 -369 0
w 393 392 370 1
w 393 392 -370 0
w 393 -392 370 0
w 393 -392 -370 1
w 394 393 371 1
w 394 393 -371 1
w 394 -393 371 0
w 394 -393 -371 1
w 395 394 372 0.190004
w 395 394 -372 0.665606
w 395 -394 372 0.846911
w 395 -394 -372 0.462379
w 396 395 373 1
w 396 395 -373 0
w 396 -395 373 0
w 396 -395 -373 1
w 397 396 374 1
w 397 396 -374 0
w 397 -396 374 1
w 397 -396 -374 1
w 398 397 375 0
w 398 397 -375 0
w 398 -397 375 0
w 398 -397 -375 1
w 399 398 376 1
w 399 398 -376 0
w 399 -398 376 1
w 399 -398 -376 1
w 400 399 377 0
w 400 399 -377 1
w 400 -399 377 0
w 400 -399 -377 0
w 401 400 378 0.00873827
w 401 400 -378 0.217078
w 401 -400 378 0.792165
w 401 -400 -378 0.471117
w 402 401 379 0
w 402 401 -379 0
w 402 -401 379 1
w 402 -401 -379 1
w 403 402 380 1
w 403 402 -380 0
w 403 -402 380 1
w 403 -402 -380 0
w 404 403 381 1
w 404 403 -381 0
w 404 -403 381 0
w 404 -403 -381 0
w 405 404 382 1
w 405 404 -382 1
w 405 -404 382 0
w 405 -404 -382 0
w 406 405 383 0
w 406 405 -383 1
w 406 -405 383 1
w 406 -405 -383 0
w 407 406 384 0
w 407 406 -384 1
w 407 -406 384 1
w 407 -406 -384 1
w 408 407 385 0
w 408 407 -385 1
w 408 -407 385 0
w 408 -407 -385 0
w 409 408 386 1
w 409 408 -386 1
w 409 -408 386 0
w 409 -408 -386 1
w 410 409 387 1
w 410 409 -387 1
w 410 -409 387 1
w 410 -409 -387 0
w 411 410 388 0
w 411 410 -388 1
w 411 -410 388 0
w 411 -410 -388 1
w 412 411 389 0.72408
w 412 411 -389 0.112041
w 412 -411 389 0.0279642
w 412 -411 -389 0.265791
w 413 412 390 1
w 413 412 -390 1
w 413 -412 390 1
w 413 -412 -390 0
w 414 413 391 0.521032
w 414 413 -391 0.75888
w 414 -413 391 0.848088
w 414 -413 -391 0.688611
w 415 392 1
w 415 -392 0
w 416 415 393 0.0409181
w 416 415 -393 0.950203
w 416 -415 393 0.542942
w 416 -415 -393 0.524852
w 417 416 394 1
w 417 416 -394 0
w 417 -416 394 0
w 417 -416 -394 1
w 418 417 395 0.356394
w 418 417 -395 0.52048
w 418 -417 395 0.0256781
w 418 -417 -395 0.254398
w 419 418 396 0
w 419 418 -396 1
w 419 -418 396 1
w 419 -418 -396 0
w 420 419 397 0
w 420 419 -397 0
w 420 -419 397 1
w 420 -419 -397 0
w 421 420 398 1
w 421 420 -398 1
w 421 -420 398 0
w 421 -420 -398 1
w 422 421 399 0
w 422 421 -399 1
w 422 -421 399 1
w 422 -421 -399 1
w 423 422 400 0
w 423 422 -400 0
w 423 -422 400 0
w 423 -422 -400 1
w 424 423 401 1
w 424 423 -401 0
w 424 -423 401 1
w 424 -423 -401 0
w 425 424 402 1
w 425 424 -402 0
w 425 -424 402 0
w 425 -424 -402 0
w 426 425 403 0
w 426 425 -403 0
w 426 -425 403 1
w 426 -425 -403 0
w 427 426 404 1
w 427 426 -404 1
w 427 -426 404 0
w 427 -426 -404 0
w 428 427 405 1
w 428 427 -405 1
w 428 -427 405 0
w 428 -427 -405 0
w 429 428 406 0
w 429 428 -406 0
w 429 -428 406 0
w 429 -428 -406 1
w 430 429 407 1
w 430 429 -407 1
w 430 -429 407 1
w 430 -429 -407 0
w 431 430 408 0
w 431 430 -408 0
w 431 -430 408 1
w 431 -430 -408 0
w 432 431 409 0.373246
w 432 431 -409 0.576415
w 432 -431 409 0.135264
w 432 -431 -409 0.769535
w 433 432 410 0
w 433 432 -410 0
w 433 -432 410 1
w 433 -432 -410 1
w 434 433 411 1
w 434 433 -411 0
w 434 -433 411 1
w 434 -433 -411 0
w 435 434 412 0.440646
w 435 434 -412 0.525826
w 435 -434 412 0.303159
w 435 -434 -412 0.658208
w 436 435 413 0.27799
w 436 435 -413 0.793935
w 436 -435 413 0.732921
w 436 -435 -413 0.159651
w 437 436 414 1
w 437 436 -414 1
w 437 -436 414 1
w 437 -436 -414 0
w 438 415 0.0351214
w 438 -415 0.697435
w 439 438 416 0
w 439 438 -416 1
w 439 -438 416 1
w 439 -438 -416 0
w 440 439 417 0
w 440 439 -417 1
w 440 -439 417 1
w 440 -439 -417 1
w 441 440 418 0
w 441 440 -418 0
w 441 -440 418 1
w 441 -440 -418 0
w 442 441 419 1
w 442 441 -419 0
w 442 -441 419 0
w 442 -441 -419 1
w 443 442 420 0.420957
w 443 442 -420 0.759606
w 443 -442 420 0.995225
w 443 -442 -420 0.379521
w 444 443 421 0.0591468
w 444 443 -421 0.70371
w 444 -443 421 0.866203
w 444 -443 -421 0.0942682
w 445 444 422 0
w 445 444 -422 0
w 445 -444 422 0
w 445 -444 -422 1
w 446 445 423 0
w 446 445 -423 1
w 446 -445 423 0
w 446 -445 -423 1
w 447 446 424 1
w 447 446 -424 1
w 447 -446 424 1
w 447 -446 -424 0
w 448 447 425 0
w 448 447 -425 0
w 448 -447 425 0
w 448 -447 -425 1
w 449 448 426 1
w 449 448 -426 0
w 449 -448 426 1
w 449 -448 -426 0
w 450 449 427 0
w 450 449 -427 1
w 450 -449 427 0
w 450 -449 -427 1
w 451 450 428 0.743902
w 451 450 -428 0.85324
w 451 -450 428 0.654361
w 451 -450 -428 0.137338
w 452 451 429 1
w 452 451 -429 0
w 452 -451 429 0
w 452 -451 -429 0
w 453 452 430 0.299137
w 453 452 -430 0.177538
w 453 -452 430 0.353697
w 453 -452 -430 0.18649
w 454 453 431 0
w 454 453 -431 1
w 454 -453 431 1
w 454 -453 -431 0
w 455 454 432 1
w 455 454 -432 1
w 455 -454 432 0
w 455 -454 -432 1
w 456 455 433 0
w 456 455 -433 1
w 456 -455 433 1
w 456 -455 -433 0
w 457 456 434 0
w 457 456 -434 0
w 457 -456 434 0
w 457 -456 -434 1
w 458 457 435 1
w 458 457 -435 0
w 458 -457 435 0
w 458 -457 -435 0
w 459 458 436 1
w 459 458 -436 0
w 459 -458 436 0
w 459 -458 -436 0
w 460 459 437 0
w 460 459 -437 1
w 460 -459 437 1
w 460 -459 -437 0
w 461 438 0
w 461 -438 1
w 462 461 439 0
w 462 461 -439 1
w 462 -461 439 1
w 462 -461 -439 0
w 463 462 440 1
w 463 462 -440 1
w 463 -462 440 1
w 463 -462 -440 0
w 464 463 441 0.20503
w 464 463 -441 0.0777764
w 464 -463 441 0.317459
w 464 -463 -441 0.67403
w 465 464 442 1
w 465 464 -442 1
w 465 -464 442 0
w 465 -464 -442 1
w 466 465 443 0
w 466 465 -443 1
w 466 -465 443 0
w 466 -465 -443 0
w 467 466 444 0.237089
w 467 466 -444 0.392554
w 467 -466 444 0.994179
w 467 -466 -444 0.415062
w 468 467 445 1
w 468 467 -445 1
w 468 -467 445 1
w 468 -467 -445 0
w 469 468 446 0
w 469 468 -446 1
w 469 -468 446 0
w 469 -468 -446 0
w 470 469 447 1
w 470 469 -447 1
w 470 -469 447 0
w 470 -469 -447 1
w 471 470 448 0.511348
w 471 470 -448 0.740302
w 471 -470 448 0.232274
w 471 -470 -448 0.0975464
w 472 471 449 0.151204
w 472 471 -449 0.154173
w 472 -471 449 0.571837
w 472 -471 -449 0.0932034
w 473 472 450 1
w 473 472 -450 0
w 473 -472 450 0
w 473 -472 -450 0
w 474 473 451 0.834998
w 474 473 -451 0.221334
w 474 -473 451 0.928342
w 474 -473 -451 0.154252
w 475 474 452 0.882374
w 475 474 -452 0.282632
w 475 -474 452 0.289132
w 475 -474 -452 0.274804
w 476 475 453 0
w 476 475 -453 0
w 476 -475 453 1
w 476 -475 -453 0
w 477 476 454 1
w 477 476 -454 0
w 477 -476 454 0
w 477 -476 -454 1
w 478 477 455 1
w 478 477 -455 1
w 478 -477 455 0
w 478 -477 -455 1
w 479 478 456 0
w 479 478 -456 0
w 479 -478 456 0
w 479 -478 -456 1
w 480 479 457 0
w 480 479 -457 1
w 480 -479 457 1
w 480 -479 -457 1
w 481 480 458 1
w 481 480 -458 1
w 481 -480 458 0
w 481 -480 -458 1
w 482 481 459 0.0358671
w 482 481 -459 0.514059
w 482 -481 459 0.258871
w 482 -481 -459 0.570718
w 483 482 460 0
w 483 482 -460 0
w 483 -482 460 1
w 483 -482 -460 0
w 484 461 0
w 484 -461 1
w 485 484 462 1
w 485 484 -462 0
w 485 -484 462 0
w 485 -484 -462 1
w 486 485 463 0
w 486 485 -463 1
w 486 -485 463 0
w 486 -485 -463 1
w 487 486 464 1
w 487 486 -464 0
w 487 -486 464 1
w 487 -486 -464 0
w 488 487 465 0
w 488 487 -465 1
w 488 -487 465 1
w 488 -487 -465 0
w 489 488 466 1
w 489 488 -466 0
w 489 -488 466 0
w 489 -488 -466 1
w 490 489 467 0.655887
w 490 489 -467 0.889748
w 490 -489 467 0.487565
w 490 -489 -467 0.91206
w 491 490 468 0
w 491 490 -468 0
w 491 -490 468 1
w 491 -490 -468 0
w 492 491 469 0.273557
w 492 491 -469 0.514032
w 492 -491 469 0.265267
w 492 -491 -469 0.544427
w 493 492 470 1
w 493 492 -470 1
w 493 -492 470 0
w 493 -492 -470 0
w 494 493 471 1
w 494 493 -471 0
w 494 -493 471 0
w 494 -493 -471 0
w 495 494 472 0.828363
w 495 494 -472 0.878928
w 495 -494 472 0.411338
w 495 -494 -472 0.146407
w 496 495 473 0
w 496 495 -473 0
w 496 -495 473 0
w 496 -495 -473 1
w 497 496 474 1
w 497 496 -474 1
w 497 -496 474 0
w 497 -496 -474 0
w 498 497 475 0.83888
w 498 497 -475 0.176169
w 498 -497 475 0.268357
w 498 -497 -475 0.104147
w 499 498 476 1
w 499 498 -476 0
w 499 -498 476 1
w 499 -498 -476 1
w 500 499 477 1
w 500 499 -477 0
w 500 -499 477 0
w 500 -499 -477 1
w 501 500 478 1
w 501 500 -478 0
w 501 -500 478 1
w 501 -500 -478 1
w 502 501 479 0
w 502 501 -479 0
w 502 -501 479 1
w 502 -501 -479 0
w 503 502 480 1
w 503 502 -480 1
w 503 -502 480 0
w 503 -502 -480 1
w 504 503 481 0
w 504 503 -481 1
w 504 -503 481 0
w 504 -503 -481 1
w 505 504 482 1
w 505 504 -482 0
w 505 -504 482 0
w 505 -504 -482 0
w 506 505 483 0
w 506 505 -483 1
w 506 -505 483 0
w 506 -505 -483 1
w 507 484 1
w 507 -484 0
w 508 507 485 1
w 508 507 -485 0
w 508 -507 485 1
w 508 -507 -485 1
w 509 508 486 1
w 509 508 -486 0
w 509 -508 486 1
w 509 -508 -486 0
w 510 509 487 0.557337
w 510 509 -487 0.479453
w 510 -509 487 0.302025
w 510 -509 -487 0.075611
w 511 510 488 0
w 511 510 -488 1
w 511 -510 488 1
w 511 -510 -488 1
w 512 511 489 1
w 512 511 -489 1
w 512 -511 489 0
w 512 -511 -489 1
w 513 512 490 0
w 513 512 -490 1
w 513 -512 490 1
w 513 -512 -490 1
w 514 513 491 1
w 514 513 -491 0
w 514 -513 491 0
w 514 -513 -491 0
w 515 514 492 0
w 515 514 -492 0
w 515 -514 492 0
w 515 -514 -492 1
w 516 515 493 1
w 516 515 -493 0
w 516 -515 493 1
w 516 -515 -493 0
w 517 516 494 1
w 517 516 -494 1
w 517 -516 494 1
w 517 -516 -494 0
w 518 517 495 1
w 518 517 -495 1
w 518 -517 495 1
w 518 -517 -495 0
w 519 518 496 1
w 519 518 -496 0
w 519 -518 496 1
w 519 -518 -496 0
w 520 519 497 0.946586
w 520 519 -497 0.204623
w 520 -519 497 0.7271
w 520 -519 -497 0.992831
w 521 520 498 0
w 521 520 -498 0
w 521 -520 498 0
w 521 -520 -498 1
w 522 521 499 0
w 522 521 -499 1
w 522 -521 499 0
w 522 -521 -499 0
w 523 522 500 1
w 523 522 -500 1
w 523 -522 500 1
w 523 -522 -500 0
w 524 523 501 0
w 524 523 -501 1
w 524 -523 501 1
w 524 -523 -501 1
w 525 524 502 1
w 525 524 -502 0
w 525 -524 502 1
w 525 -524 -502 0
w 526 525 503 0.0562252
w 526 525 -503 0.0340499
w 526 -525 503 0.86461
w 526 -525 -503 0.492626
w 527 526 504 0.924285
w 527 526 -504 0.104574
w 527 -526 504 0.0250086
w 527 -526 -504 0.992478
w 528 527 505 0
w 528 527 -505 0
w 528 -527 505 1
w 528 -527 -505 0
w 529 528 506 0.389121
w 529 528 -506 0.607354
w 529 -528 506 0.589077
w 529 -528 -506 0.783439